
Gurobi 13.0.1 (win64, Python) logging started Fri Mar 27 10:46:59 2026

Set parameter Username
Set parameter LicenseID to value 2799140
Set parameter LogFile to value "gurobi.log"
Restricted license - for non-production use only - expires 2027-11-29

Gurobi 13.0.1 (win64, Python) logging started Fri Mar 27 12:00:23 2026

Set parameter Username
Set parameter LicenseID to value 2799140
Set parameter LogFile to value "gurobi.log"
Restricted license - for non-production use only - expires 2027-11-29

Gurobi 13.0.1 (win64, Python) logging started Fri Mar 27 12:04:35 2026

Set parameter Username
Set parameter LicenseID to value 2799140
Set parameter LogFile to value "gurobi.log"
Academic license - for non-commercial use only - expires 2027-03-27
